(set-info :source |printed by MathSAT|)
(declare-fun call__DRAGON_.g04 () Bool)
(declare-fun param_e04 () Bool)
(declare-fun call__DRAGON_.ite19 () Int)
(declare-fun call__DRAGON_.ite31 () Int)
(declare-fun call__DRAGON_.ite16 () Int)
(declare-fun call__DRAGON_.invalid () Int)
(declare-fun call__DRAGON_.ite59 () Int)
(declare-fun call__DRAGON_.ite2 () Int)
(declare-fun call__DRAGON_.ite9 () Int)
(declare-fun call__DRAGON_.flby5 () Int)
(declare-fun call__DRAGON_.shared () Int)
(declare-fun call__DRAGON_.exclusive () Int)
(declare-fun call__DRAGON_.ite27 () Int)
(declare-fun call__DRAGON_.g05 () Bool)
(declare-fun call__DRAGON_.ite54 () Int)
(declare-fun call__DRAGON_.ite55 () Int)
(declare-fun call__DRAGON_.ite60 () Int)
(declare-fun param_e07 () Bool)
(declare-fun call__DRAGON_.ite42 () Int)
(declare-fun env () Bool)
(declare-fun call__DRAGON_.ite50 () Int)
(declare-fun call__DRAGON_.ite57 () Int)
(declare-fun call__DRAGON_.ite52 () Int)
(declare-fun call__DRAGON_.ite20 () Int)
(declare-fun call__DRAGON_.ite3 () Int)
(declare-fun call__DRAGON_.ite13 () Int)
(declare-fun param_e06 () Bool)
(declare-fun call_Sofar.flby () Bool)
(declare-fun param_e09 () Bool)
(declare-fun call__DRAGON_.shared_dirty () Int)
(declare-fun call__DRAGON_.g06 () Bool)
(declare-fun call__DRAGON_.ite11 () Int)
(declare-fun param_e01 () Bool)
(declare-fun call__DRAGON_.ite33 () Int)
(declare-fun call__DRAGON_.ite32 () Int)
(declare-fun param_e11 () Bool)
(declare-fun call__DRAGON_.ite36 () Int)
(declare-fun call__DRAGON_.ite23 () Int)
(declare-fun param_e12 () Bool)
(declare-fun call__DRAGON_.ite51 () Int)
(declare-fun invalid () Int)
(declare-fun call__DRAGON_.ite () Bool)
(declare-fun param_e05 () Bool)
(declare-fun call__DRAGON_.ite18 () Int)
(declare-fun call__DRAGON_.ite34 () Int)
(declare-fun param_e08 () Bool)
(declare-fun call__DRAGON_.ite5 () Int)
(declare-fun call__DRAGON_.ite37 () Int)
(declare-fun call__DRAGON_.ite24 () Int)
(declare-fun call__DRAGON_.ite7 () Int)
(declare-fun call__DRAGON_.ite58 () Int)
(declare-fun call__DRAGON_.ite26 () Int)
(declare-fun call__DRAGON_.g08 () Bool)
(declare-fun dirty () Int)
(declare-fun call__DRAGON_.ite45 () Int)
(declare-fun call__DRAGON_.flby3 () Int)
(declare-fun call__DRAGON_.ite40 () Int)
(declare-fun param_init_invalid () Int)
(declare-fun call__DRAGON_.ite30 () Int)
(declare-fun call__DRAGON_.ite39 () Int)
(declare-fun call__DRAGON_.ite25 () Int)
(declare-fun call__DRAGON_.ite53 () Int)
(declare-fun call__DRAGON_.mem_init () Int)
(declare-fun call__DRAGON_.ite12 () Int)
(declare-fun call__DRAGON_.ite29 () Int)
(declare-fun call__DRAGON_.erreur () Bool)
(declare-fun call__DRAGON_.ite4 () Int)
(declare-fun call__DRAGON_.ite48 () Int)
(declare-fun call_excludes12.excludes () Bool)
(declare-fun call__DRAGON_.ite35 () Int)
(declare-fun call__DRAGON_.g02 () Bool)
(declare-fun call__DRAGON_.flby () Int)
(declare-fun call__DRAGON_.ite15 () Int)
(declare-fun call__DRAGON_.ite56 () Int)
(declare-fun param_e03 () Bool)
(declare-fun call__DRAGON_.ite22 () Int)
(declare-fun call__DRAGON_.ite14 () Int)
(declare-fun call__DRAGON_.ite44 () Int)
(declare-fun call__DRAGON_.ite6 () Int)
(declare-fun call__DRAGON_.flby6 () Int)
(declare-fun call__DRAGON_.ite41 () Int)
(declare-fun call__DRAGON_.ite49 () Int)
(declare-fun call__DRAGON_.ite46 () Int)
(declare-fun call__DRAGON_.ite17 () Int)
(declare-fun call__DRAGON_.ite8 () Int)
(declare-fun call__DRAGON_.dirty () Int)
(declare-fun call_Sofar.Sofar () Bool)
(declare-fun call__DRAGON_.ite10 () Int)
(declare-fun call__DRAGON_.ite38 () Int)
(declare-fun call__DRAGON_.ite21 () Int)
(declare-fun call__DRAGON_.ite47 () Int)
(declare-fun call__DRAGON_.ite28 () Int)
(declare-fun call__DRAGON_.ite43 () Int)
(declare-fun call__DRAGON_.ite61 () Int)
(declare-fun call__DRAGON_.flby4 () Int)
(declare-fun exclusive () Int)
(declare-fun shared () Int)
(declare-fun param_e10 () Bool)
(declare-fun call__DRAGON_.flby2 () Int)
(declare-fun shared_dirty () Int)
(declare-fun param_e02 () Bool)
(declare-fun _OK_ () Bool)
(declare-fun erreur () Bool)
(define-fun .def_1729 () Bool (= call_Sofar.flby call_Sofar.Sofar))
(define-fun .def_1538 () Bool (not param_e02))
(define-fun .def_1519 () Bool (not param_e01))
(define-fun .def_1627 () Bool (and .def_1519 .def_1538))
(define-fun .def_1578 () Bool (not param_e03))
(define-fun .def_1628 () Bool (and .def_1578 .def_1627))
(define-fun .def_1594 () Bool (not param_e04))
(define-fun .def_1629 () Bool (and .def_1594 .def_1628))
(define-fun .def_1383 () Bool (not param_e05))
(define-fun .def_1630 () Bool (and .def_1383 .def_1629))
(define-fun .def_1367 () Bool (not param_e06))
(define-fun .def_1631 () Bool (and .def_1367 .def_1630))
(define-fun .def_1403 () Bool (not param_e07))
(define-fun .def_1632 () Bool (and .def_1403 .def_1631))
(define-fun .def_1421 () Bool (not param_e08))
(define-fun .def_1633 () Bool (and .def_1421 .def_1632))
(define-fun .def_1263 () Bool (not param_e09))
(define-fun .def_1634 () Bool (and .def_1263 .def_1633))
(define-fun .def_1269 () Bool (not param_e10))
(define-fun .def_1635 () Bool (and .def_1269 .def_1634))
(define-fun .def_1276 () Bool (not param_e11))
(define-fun .def_1636 () Bool (and .def_1276 .def_1635))
(define-fun .def_1283 () Bool (not param_e12))
(define-fun .def_1714 () Bool (and .def_1283 .def_1636))
(define-fun .def_1703 () Bool (and param_e01 .def_1538))
(define-fun .def_1704 () Bool (and .def_1578 .def_1703))
(define-fun .def_1705 () Bool (and .def_1594 .def_1704))
(define-fun .def_1706 () Bool (and .def_1383 .def_1705))
(define-fun .def_1707 () Bool (and .def_1367 .def_1706))
(define-fun .def_1708 () Bool (and .def_1403 .def_1707))
(define-fun .def_1709 () Bool (and .def_1421 .def_1708))
(define-fun .def_1710 () Bool (and .def_1263 .def_1709))
(define-fun .def_1711 () Bool (and .def_1269 .def_1710))
(define-fun .def_1712 () Bool (and .def_1276 .def_1711))
(define-fun .def_1713 () Bool (and .def_1283 .def_1712))
(define-fun .def_1715 () Bool (or .def_1713 .def_1714))
(define-fun .def_1692 () Bool (and .def_1519 param_e02))
(define-fun .def_1693 () Bool (and .def_1578 .def_1692))
(define-fun .def_1694 () Bool (and .def_1594 .def_1693))
(define-fun .def_1695 () Bool (and .def_1383 .def_1694))
(define-fun .def_1696 () Bool (and .def_1367 .def_1695))
(define-fun .def_1697 () Bool (and .def_1403 .def_1696))
(define-fun .def_1698 () Bool (and .def_1421 .def_1697))
(define-fun .def_1699 () Bool (and .def_1263 .def_1698))
(define-fun .def_1700 () Bool (and .def_1269 .def_1699))
(define-fun .def_1701 () Bool (and .def_1276 .def_1700))
(define-fun .def_1702 () Bool (and .def_1283 .def_1701))
(define-fun .def_1716 () Bool (or .def_1702 .def_1715))
(define-fun .def_1682 () Bool (and param_e03 .def_1627))
(define-fun .def_1683 () Bool (and .def_1594 .def_1682))
(define-fun .def_1684 () Bool (and .def_1383 .def_1683))
(define-fun .def_1685 () Bool (and .def_1367 .def_1684))
(define-fun .def_1686 () Bool (and .def_1403 .def_1685))
(define-fun .def_1687 () Bool (and .def_1421 .def_1686))
(define-fun .def_1688 () Bool (and .def_1263 .def_1687))
(define-fun .def_1689 () Bool (and .def_1269 .def_1688))
(define-fun .def_1690 () Bool (and .def_1276 .def_1689))
(define-fun .def_1691 () Bool (and .def_1283 .def_1690))
(define-fun .def_1717 () Bool (or .def_1691 .def_1716))
(define-fun .def_1673 () Bool (and param_e04 .def_1628))
(define-fun .def_1674 () Bool (and .def_1383 .def_1673))
(define-fun .def_1675 () Bool (and .def_1367 .def_1674))
(define-fun .def_1676 () Bool (and .def_1403 .def_1675))
(define-fun .def_1677 () Bool (and .def_1421 .def_1676))
(define-fun .def_1678 () Bool (and .def_1263 .def_1677))
(define-fun .def_1679 () Bool (and .def_1269 .def_1678))
(define-fun .def_1680 () Bool (and .def_1276 .def_1679))
(define-fun .def_1681 () Bool (and .def_1283 .def_1680))
(define-fun .def_1718 () Bool (or .def_1681 .def_1717))
(define-fun .def_1665 () Bool (and param_e05 .def_1629))
(define-fun .def_1666 () Bool (and .def_1367 .def_1665))
(define-fun .def_1667 () Bool (and .def_1403 .def_1666))
(define-fun .def_1668 () Bool (and .def_1421 .def_1667))
(define-fun .def_1669 () Bool (and .def_1263 .def_1668))
(define-fun .def_1670 () Bool (and .def_1269 .def_1669))
(define-fun .def_1671 () Bool (and .def_1276 .def_1670))
(define-fun .def_1672 () Bool (and .def_1283 .def_1671))
(define-fun .def_1719 () Bool (or .def_1672 .def_1718))
(define-fun .def_1658 () Bool (and param_e06 .def_1630))
(define-fun .def_1659 () Bool (and .def_1403 .def_1658))
(define-fun .def_1660 () Bool (and .def_1421 .def_1659))
(define-fun .def_1661 () Bool (and .def_1263 .def_1660))
(define-fun .def_1662 () Bool (and .def_1269 .def_1661))
(define-fun .def_1663 () Bool (and .def_1276 .def_1662))
(define-fun .def_1664 () Bool (and .def_1283 .def_1663))
(define-fun .def_1720 () Bool (or .def_1664 .def_1719))
(define-fun .def_1652 () Bool (and param_e07 .def_1631))
(define-fun .def_1653 () Bool (and .def_1421 .def_1652))
(define-fun .def_1654 () Bool (and .def_1263 .def_1653))
(define-fun .def_1655 () Bool (and .def_1269 .def_1654))
(define-fun .def_1656 () Bool (and .def_1276 .def_1655))
(define-fun .def_1657 () Bool (and .def_1283 .def_1656))
(define-fun .def_1721 () Bool (or .def_1657 .def_1720))
(define-fun .def_1647 () Bool (and param_e08 .def_1632))
(define-fun .def_1648 () Bool (and .def_1263 .def_1647))
(define-fun .def_1649 () Bool (and .def_1269 .def_1648))
(define-fun .def_1650 () Bool (and .def_1276 .def_1649))
(define-fun .def_1651 () Bool (and .def_1283 .def_1650))
(define-fun .def_1722 () Bool (or .def_1651 .def_1721))
(define-fun .def_1643 () Bool (and param_e09 .def_1633))
(define-fun .def_1644 () Bool (and .def_1269 .def_1643))
(define-fun .def_1645 () Bool (and .def_1276 .def_1644))
(define-fun .def_1646 () Bool (and .def_1283 .def_1645))
(define-fun .def_1723 () Bool (or .def_1646 .def_1722))
(define-fun .def_1640 () Bool (and param_e10 .def_1634))
(define-fun .def_1641 () Bool (and .def_1276 .def_1640))
(define-fun .def_1642 () Bool (and .def_1283 .def_1641))
(define-fun .def_1724 () Bool (or .def_1642 .def_1723))
(define-fun .def_1638 () Bool (and param_e11 .def_1635))
(define-fun .def_1639 () Bool (and .def_1283 .def_1638))
(define-fun .def_1725 () Bool (or .def_1639 .def_1724))
(define-fun .def_1637 () Bool (and param_e12 .def_1636))
(define-fun .def_1726 () Bool (or .def_1637 .def_1725))
(define-fun .def_1727 () Bool (= call_excludes12.excludes .def_1726))
(define-fun .def_1625 () Bool (= call__DRAGON_.mem_init call__DRAGON_.flby))
(define-fun .def_1623 () Bool (= call__DRAGON_.erreur call__DRAGON_.ite))
(define-fun .def_1621 () Bool (= call__DRAGON_.flby6 call__DRAGON_.invalid))
(define-fun .def_1619 () Bool (= call__DRAGON_.flby5 call__DRAGON_.dirty))
(define-fun .def_1617 () Bool (= call__DRAGON_.flby4 call__DRAGON_.shared_dirty))
(define-fun .def_1615 () Bool (= call__DRAGON_.flby3 call__DRAGON_.shared))
(define-fun .def_1612 () Bool (= call__DRAGON_.flby2 call__DRAGON_.exclusive))
(define-fun .def_1607 () Bool (<= 2 call__DRAGON_.exclusive))
(define-fun .def_1609 () Bool (not .def_1607))
(define-fun .def_1610 () Bool (or call__DRAGON_.ite .def_1609))
(define-fun .def_1606 () Bool (not call__DRAGON_.ite))
(define-fun .def_1608 () Bool (or .def_1606 .def_1607))
(define-fun .def_1611 () Bool (and .def_1608 .def_1610))
(define-fun .def_1613 () Bool (and .def_1611 .def_1612))
(define-fun .def_1601 () Bool (= call__DRAGON_.ite42 call__DRAGON_.ite43))
(define-fun .def_1602 () Bool (or param_e04 .def_1601))
(define-fun .def_1598 () Bool (= call__DRAGON_.ite43 call__DRAGON_.ite34))
(define-fun .def_1599 () Bool (or .def_1594 .def_1598))
(define-fun .def_1593 () Bool (= call__DRAGON_.ite23 call__DRAGON_.ite30))
(define-fun .def_1595 () Bool (or .def_1593 .def_1594))
(define-fun .def_1590 () Bool (= call__DRAGON_.ite29 call__DRAGON_.ite30))
(define-fun .def_1592 () Bool (or .def_1590 param_e04))
(define-fun .def_1596 () Bool (and .def_1592 .def_1595))
(define-fun .def_1600 () Bool (and .def_1596 .def_1599))
(define-fun .def_1603 () Bool (and .def_1600 .def_1602))
(define-fun .def_1586 () Bool (= call__DRAGON_.ite44 call__DRAGON_.ite43))
(define-fun .def_1587 () Bool (or param_e03 .def_1586))
(define-fun .def_1582 () Bool (= call__DRAGON_.ite44 call__DRAGON_.ite33))
(define-fun .def_1583 () Bool (or .def_1578 .def_1582))
(define-fun .def_1577 () Bool (= call__DRAGON_.ite9 call__DRAGON_.ite4))
(define-fun .def_1579 () Bool (or .def_1577 .def_1578))
(define-fun .def_1573 () Bool (= call__DRAGON_.ite8 call__DRAGON_.ite9))
(define-fun .def_1575 () Bool (or .def_1573 param_e03))
(define-fun .def_1580 () Bool (and .def_1575 .def_1579))
(define-fun .def_1584 () Bool (and .def_1580 .def_1583))
(define-fun .def_1588 () Bool (and .def_1584 .def_1587))
(define-fun .def_1569 () Bool (= call__DRAGON_.ite31 call__DRAGON_.ite30))
(define-fun .def_1570 () Bool (or param_e02 .def_1569))
(define-fun .def_1565 () Bool (= call__DRAGON_.ite22 call__DRAGON_.ite31))
(define-fun .def_1566 () Bool (or .def_1538 .def_1565))
(define-fun .def_1560 () Bool (= call__DRAGON_.ite20 call__DRAGON_.ite21))
(define-fun .def_1561 () Bool (or param_e02 .def_1560))
(define-fun .def_1557 () Bool (= call__DRAGON_.ite12 call__DRAGON_.ite21))
(define-fun .def_1558 () Bool (or .def_1538 .def_1557))
(define-fun .def_1552 () Bool (= call__DRAGON_.ite10 call__DRAGON_.ite9))
(define-fun .def_1553 () Bool (or param_e02 .def_1552))
(define-fun .def_1548 () Bool (= call__DRAGON_.ite3 call__DRAGON_.ite10))
(define-fun .def_1549 () Bool (or .def_1538 .def_1548))
(define-fun .def_1545 () Bool (= call__DRAGON_.ite59 call__DRAGON_.ite60))
(define-fun .def_1546 () Bool (or param_e02 .def_1545))
(define-fun .def_1542 () Bool (= call__DRAGON_.ite60 call__DRAGON_.ite47))
(define-fun .def_1543 () Bool (or .def_1538 .def_1542))
(define-fun .def_1537 () Bool (= call__DRAGON_.ite32 call__DRAGON_.ite45))
(define-fun .def_1539 () Bool (or .def_1537 .def_1538))
(define-fun .def_1534 () Bool (= call__DRAGON_.ite45 call__DRAGON_.ite44))
(define-fun .def_1536 () Bool (or .def_1534 param_e02))
(define-fun .def_1540 () Bool (and .def_1536 .def_1539))
(define-fun .def_1544 () Bool (and .def_1540 .def_1543))
(define-fun .def_1547 () Bool (and .def_1544 .def_1546))
(define-fun .def_1550 () Bool (and .def_1547 .def_1549))
(define-fun .def_1554 () Bool (and .def_1550 .def_1553))
(define-fun .def_1559 () Bool (and .def_1554 .def_1558))
(define-fun .def_1562 () Bool (and .def_1559 .def_1561))
(define-fun .def_1567 () Bool (and .def_1562 .def_1566))
(define-fun .def_1571 () Bool (and .def_1567 .def_1570))
(define-fun .def_1528 () Bool (= call__DRAGON_.ite11 call__DRAGON_.ite10))
(define-fun .def_1529 () Bool (or param_e01 .def_1528))
(define-fun .def_1524 () Bool (= call__DRAGON_.ite2 call__DRAGON_.ite11))
(define-fun .def_1525 () Bool (or .def_1519 .def_1524))
(define-fun .def_1518 () Bool (= call__DRAGON_.ite61 call__DRAGON_.ite46))
(define-fun .def_1520 () Bool (or .def_1518 .def_1519))
(define-fun .def_1514 () Bool (= call__DRAGON_.ite61 call__DRAGON_.ite60))
(define-fun .def_1516 () Bool (or .def_1514 param_e01))
(define-fun .def_1521 () Bool (and .def_1516 .def_1520))
(define-fun .def_1526 () Bool (and .def_1521 .def_1525))
(define-fun .def_1530 () Bool (and .def_1526 .def_1529))
(define-fun .def_1508 () Bool (= call__DRAGON_.ite55 call__DRAGON_.ite52))
(define-fun .def_1509 () Bool (or .def_1276 .def_1508))
(define-fun .def_1505 () Bool (= call__DRAGON_.ite54 call__DRAGON_.ite55))
(define-fun .def_1506 () Bool (or param_e11 .def_1505))
(define-fun .def_1510 () Bool (and .def_1506 .def_1509))
(define-fun .def_1501 () Bool (= call__DRAGON_.ite56 call__DRAGON_.ite51))
(define-fun .def_1502 () Bool (or .def_1269 .def_1501))
(define-fun .def_1498 () Bool (= call__DRAGON_.ite56 call__DRAGON_.ite55))
(define-fun .def_1499 () Bool (or param_e10 .def_1498))
(define-fun .def_1503 () Bool (and .def_1499 .def_1502))
(define-fun .def_1495 () Bool (= env call_Sofar.Sofar))
(define-fun .def_1490 () Bool (= call__DRAGON_.ite57 call__DRAGON_.ite50))
(define-fun .def_1491 () Bool (or .def_1263 .def_1490))
(define-fun .def_1487 () Bool (= call__DRAGON_.ite57 call__DRAGON_.ite56))
(define-fun .def_1488 () Bool (or param_e09 .def_1487))
(define-fun .def_1492 () Bool (and .def_1488 .def_1491))
(define-fun .def_1484 () Bool (= erreur call__DRAGON_.erreur))
(define-fun .def_1480 () Bool (= invalid call__DRAGON_.invalid))
(define-fun .def_1476 () Bool (= dirty call__DRAGON_.dirty))
(define-fun .def_1473 () Bool (= shared_dirty call__DRAGON_.shared_dirty))
(define-fun .def_1469 () Bool (= shared call__DRAGON_.shared))
(define-fun .def_1466 () Bool (= exclusive call__DRAGON_.exclusive))
(define-fun .def_1458 () Bool (<= 1 shared))
(define-fun .def_1459 () Bool (not .def_1458))
(define-fun .def_1455 () Bool (<= 1 dirty))
(define-fun .def_1456 () Bool (not .def_1455))
(define-fun .def_1460 () Bool (or .def_1456 .def_1459))
(define-fun .def_1453 () Bool (not env))
(define-fun .def_1461 () Bool (or .def_1453 .def_1460))
(define-fun .def_1462 () Bool (= _OK_ .def_1461))
(define-fun .def_1447 () Bool (= call__DRAGON_.ite39 call__DRAGON_.ite40))
(define-fun .def_1448 () Bool (or param_e08 .def_1447))
(define-fun .def_1444 () Bool (= call__DRAGON_.ite37 call__DRAGON_.ite40))
(define-fun .def_1445 () Bool (or .def_1421 .def_1444))
(define-fun .def_1441 () Bool (= call__DRAGON_.ite27 call__DRAGON_.ite28))
(define-fun .def_1442 () Bool (or param_e08 .def_1441))
(define-fun .def_1438 () Bool (= call__DRAGON_.ite25 call__DRAGON_.ite28))
(define-fun .def_1439 () Bool (or .def_1421 .def_1438))
(define-fun .def_1435 () Bool (= call__DRAGON_.ite17 call__DRAGON_.ite18))
(define-fun .def_1436 () Bool (or param_e08 .def_1435))
(define-fun .def_1432 () Bool (= call__DRAGON_.ite18 call__DRAGON_.ite15))
(define-fun .def_1433 () Bool (or .def_1421 .def_1432))
(define-fun .def_1428 () Bool (= call__DRAGON_.ite7 call__DRAGON_.ite8))
(define-fun .def_1429 () Bool (or param_e08 .def_1428))
(define-fun .def_1425 () Bool (= call__DRAGON_.ite5 call__DRAGON_.ite8))
(define-fun .def_1426 () Bool (or .def_1421 .def_1425))
(define-fun .def_1420 () Bool (= call__DRAGON_.ite58 call__DRAGON_.ite49))
(define-fun .def_1422 () Bool (or .def_1420 .def_1421))
(define-fun .def_1416 () Bool (= call__DRAGON_.ite58 call__DRAGON_.ite57))
(define-fun .def_1418 () Bool (or .def_1416 param_e08))
(define-fun .def_1423 () Bool (and .def_1418 .def_1422))
(define-fun .def_1427 () Bool (and .def_1423 .def_1426))
(define-fun .def_1430 () Bool (and .def_1427 .def_1429))
(define-fun .def_1434 () Bool (and .def_1430 .def_1433))
(define-fun .def_1437 () Bool (and .def_1434 .def_1436))
(define-fun .def_1440 () Bool (and .def_1437 .def_1439))
(define-fun .def_1443 () Bool (and .def_1440 .def_1442))
(define-fun .def_1446 () Bool (and .def_1443 .def_1445))
(define-fun .def_1449 () Bool (and .def_1446 .def_1448))
(define-fun .def_1411 () Bool (= call__DRAGON_.ite41 call__DRAGON_.ite40))
(define-fun .def_1412 () Bool (or param_e07 .def_1411))
(define-fun .def_1407 () Bool (= call__DRAGON_.ite41 call__DRAGON_.ite36))
(define-fun .def_1408 () Bool (or .def_1403 .def_1407))
(define-fun .def_1402 () Bool (= call__DRAGON_.ite59 call__DRAGON_.ite48))
(define-fun .def_1404 () Bool (or .def_1402 .def_1403))
(define-fun .def_1398 () Bool (= call__DRAGON_.ite58 call__DRAGON_.ite59))
(define-fun .def_1400 () Bool (or .def_1398 param_e07))
(define-fun .def_1405 () Bool (and .def_1400 .def_1404))
(define-fun .def_1409 () Bool (and .def_1405 .def_1408))
(define-fun .def_1413 () Bool (and .def_1409 .def_1412))
(define-fun .def_1392 () Bool (= call__DRAGON_.ite42 call__DRAGON_.ite41))
(define-fun .def_1393 () Bool (or param_e05 .def_1392))
(define-fun .def_1388 () Bool (= call__DRAGON_.ite35 call__DRAGON_.ite42))
(define-fun .def_1389 () Bool (or .def_1383 .def_1388))
(define-fun .def_1382 () Bool (= call__DRAGON_.ite13 call__DRAGON_.ite20))
(define-fun .def_1384 () Bool (or .def_1382 .def_1383))
(define-fun .def_1379 () Bool (= call__DRAGON_.ite19 call__DRAGON_.ite20))
(define-fun .def_1381 () Bool (or .def_1379 param_e05))
(define-fun .def_1385 () Bool (and .def_1381 .def_1384))
(define-fun .def_1390 () Bool (and .def_1385 .def_1389))
(define-fun .def_1394 () Bool (and .def_1390 .def_1393))
(define-fun .def_1375 () Bool (= call__DRAGON_.ite29 call__DRAGON_.ite28))
(define-fun .def_1376 () Bool (or param_e06 .def_1375))
(define-fun .def_1371 () Bool (= call__DRAGON_.ite24 call__DRAGON_.ite29))
(define-fun .def_1372 () Bool (or .def_1367 .def_1371))
(define-fun .def_1366 () Bool (= call__DRAGON_.ite19 call__DRAGON_.ite14))
(define-fun .def_1368 () Bool (or .def_1366 .def_1367))
(define-fun .def_1362 () Bool (= call__DRAGON_.ite19 call__DRAGON_.ite18))
(define-fun .def_1364 () Bool (or .def_1362 param_e06))
(define-fun .def_1369 () Bool (and .def_1364 .def_1368))
(define-fun .def_1373 () Bool (and .def_1369 .def_1372))
(define-fun .def_1377 () Bool (and .def_1373 .def_1376))
(define-fun .def_1395 () Bool (and .def_1377 .def_1394))
(define-fun .def_1414 () Bool (and .def_1395 .def_1413))
(define-fun .def_1450 () Bool (and .def_1414 .def_1449))
(define-fun .def_1463 () Bool (and .def_1450 .def_1462))
(define-fun .def_1467 () Bool (and .def_1463 .def_1466))
(define-fun .def_1470 () Bool (and .def_1467 .def_1469))
(define-fun .def_1474 () Bool (and .def_1470 .def_1473))
(define-fun .def_1477 () Bool (and .def_1474 .def_1476))
(define-fun .def_1481 () Bool (and .def_1477 .def_1480))
(define-fun .def_1485 () Bool (and .def_1481 .def_1484))
(define-fun .def_1493 () Bool (and .def_1485 .def_1492))
(define-fun .def_1496 () Bool (and .def_1493 .def_1495))
(define-fun .def_1504 () Bool (and .def_1496 .def_1503))
(define-fun .def_1511 () Bool (and .def_1504 .def_1510))
(define-fun .def_1531 () Bool (and .def_1511 .def_1530))
(define-fun .def_1572 () Bool (and .def_1531 .def_1571))
(define-fun .def_1589 () Bool (and .def_1572 .def_1588))
(define-fun .def_1604 () Bool (and .def_1589 .def_1603))
(define-fun .def_1614 () Bool (and .def_1604 .def_1613))
(define-fun .def_1616 () Bool (and .def_1614 .def_1615))
(define-fun .def_1618 () Bool (and .def_1616 .def_1617))
(define-fun .def_1620 () Bool (and .def_1618 .def_1619))
(define-fun .def_1622 () Bool (and .def_1620 .def_1621))
(define-fun .def_1624 () Bool (and .def_1622 .def_1623))
(define-fun .def_1626 () Bool (and .def_1624 .def_1625))
(define-fun .def_1728 () Bool (and .def_1626 .def_1727))
(define-fun .def_1730 () Bool (and .def_1728 .def_1729))
(define-fun .def_1353 () Bool (<= param_init_invalid 0))
(define-fun .def_1354 () Bool (not .def_1353))
(define-fun .def_1356 () Bool (and .def_1354 call_excludes12.excludes))
(define-fun .def_1358 () Bool (= .def_1356 call_Sofar.flby))
(define-fun .def_1351 () Bool (= call__DRAGON_.flby4 0))
(define-fun .def_1348 () Bool (= call__DRAGON_.flby3 0))
(define-fun .def_1345 () Bool (= call__DRAGON_.flby2 0))
(define-fun .def_1342 () Bool (= param_init_invalid call__DRAGON_.flby))
(define-fun .def_1336 () Bool (= call__DRAGON_.ite37 0))
(define-fun .def_1329 () Bool (not call__DRAGON_.g08))
(define-fun .def_1337 () Bool (or .def_1329 .def_1336))
(define-fun .def_1332 () Bool (= call__DRAGON_.ite5 0))
(define-fun .def_1333 () Bool (or .def_1329 .def_1332))
(define-fun .def_1327 () Bool (= call__DRAGON_.ite25 1))
(define-fun .def_1330 () Bool (or .def_1327 .def_1329))
(define-fun .def_1334 () Bool (and .def_1330 .def_1333))
(define-fun .def_1338 () Bool (and .def_1334 .def_1337))
(define-fun .def_1323 () Bool (= call__DRAGON_.ite24 1))
(define-fun .def_1321 () Bool (not call__DRAGON_.g06))
(define-fun .def_1324 () Bool (or .def_1321 .def_1323))
(define-fun .def_1317 () Bool (= call__DRAGON_.ite13 0))
(define-fun .def_1315 () Bool (not call__DRAGON_.g05))
(define-fun .def_1318 () Bool (or .def_1315 .def_1317))
(define-fun .def_1311 () Bool (= call__DRAGON_.ite23 0))
(define-fun .def_1309 () Bool (not call__DRAGON_.g04))
(define-fun .def_1312 () Bool (or .def_1309 .def_1311))
(define-fun .def_1304 () Bool (= call__DRAGON_.ite3 0))
(define-fun .def_1301 () Bool (not call__DRAGON_.g02))
(define-fun .def_1305 () Bool (or .def_1301 .def_1304))
(define-fun .def_1299 () Bool (= call__DRAGON_.ite32 0))
(define-fun .def_1302 () Bool (or .def_1299 .def_1301))
(define-fun .def_1306 () Bool (and .def_1302 .def_1305))
(define-fun .def_1296 () Bool (= call__DRAGON_.flby6 call__DRAGON_.mem_init))
(define-fun .def_1292 () Bool (= call__DRAGON_.flby5 0))
(define-fun .def_1287 () Bool (= call__DRAGON_.ite53 call__DRAGON_.ite54))
(define-fun .def_1288 () Bool (or .def_1283 .def_1287))
(define-fun .def_1281 () Bool (= call__DRAGON_.ite6 call__DRAGON_.ite7))
(define-fun .def_1284 () Bool (or .def_1281 .def_1283))
(define-fun .def_1289 () Bool (and .def_1284 .def_1288))
(define-fun .def_1274 () Bool (= call__DRAGON_.ite26 call__DRAGON_.ite27))
(define-fun .def_1277 () Bool (or .def_1274 .def_1276))
(define-fun .def_1267 () Bool (= call__DRAGON_.ite16 call__DRAGON_.ite17))
(define-fun .def_1270 () Bool (or .def_1267 .def_1269))
(define-fun .def_1261 () Bool (= call__DRAGON_.ite38 call__DRAGON_.ite39))
(define-fun .def_1264 () Bool (or .def_1261 .def_1263))
(define-fun .def_1271 () Bool (and .def_1264 .def_1270))
(define-fun .def_1278 () Bool (and .def_1271 .def_1277))
(define-fun .def_1290 () Bool (and .def_1278 .def_1289))
(define-fun .def_1293 () Bool (and .def_1290 .def_1292))
(define-fun .def_1297 () Bool (and .def_1293 .def_1296))
(define-fun .def_1307 () Bool (and .def_1297 .def_1306))
(define-fun .def_1313 () Bool (and .def_1307 .def_1312))
(define-fun .def_1319 () Bool (and .def_1313 .def_1318))
(define-fun .def_1325 () Bool (and .def_1319 .def_1324))
(define-fun .def_1339 () Bool (and .def_1325 .def_1338))
(define-fun .def_1343 () Bool (and .def_1339 .def_1342))
(define-fun .def_1346 () Bool (and .def_1343 .def_1345))
(define-fun .def_1349 () Bool (and .def_1346 .def_1348))
(define-fun .def_1352 () Bool (and .def_1349 .def_1351))
(define-fun .def_1359 () Bool (and .def_1352 .def_1358))
(define-fun .def_1731 () Bool (and .def_1359 .def_1730))
(assert .def_1731)
